(set-info :smt-lib-version 2.6)
(set-logic QF_NIA)
(set-info :source |
Generated by: Cristina Borralleras, Daniel Larraz, Albert Oliveras, Enric Rodriguez-Carbonell, Albert Rubio
Generated on: 2017-04-27
Generator: VeryMax
Application: Termination proving
Target solver: barcelogic
|)
(set-info :license "https://creativecommons.org/licenses/by/4.0/")
(set-info :category "industrial")
(set-info :status sat)
(declare-fun Nl37cmd1^01 () Int)
(declare-fun Nl37cmd2^01 () Int)
(declare-fun Nl37i16^01 () Int)
(declare-fun Nl37zer^01 () Int)
(declare-fun lam0n0 () Int)
(declare-fun lam0n1 () Int)
(declare-fun lam0n2 () Int)
(declare-fun lam0n3 () Int)
(declare-fun lam0n4 () Int)
(declare-fun lam0n5 () Int)
(declare-fun Nl37CT1 () Int)
(declare-fun lam1n0 () Int)
(declare-fun lam1n1 () Int)
(declare-fun lam1n2 () Int)
(declare-fun lam1n3 () Int)
(declare-fun lam1n4 () Int)
(declare-fun lam1n5 () Int)
(declare-fun lam2n0 () Int)
(declare-fun lam2n1 () Int)
(declare-fun lam2n2 () Int)
(declare-fun lam2n3 () Int)
(declare-fun lam2n4 () Int)
(declare-fun cmd2^0 () Int)
(declare-fun zer^0 () Int)
(declare-fun undef1834 () Int)
(declare-fun cmd1^0 () Int)
(declare-fun i16^0 () Int)
(declare-fun undef11511 () Int)
(declare-fun lam3n0 () Int)
(declare-fun lam3n1 () Int)
(declare-fun lam3n2 () Int)
(declare-fun lam3n3 () Int)
(declare-fun lam3n4 () Int)
(declare-fun lam3n6 () Int)
(declare-fun lam3n5 () Int)
(declare-fun lam4n0 () Int)
(declare-fun lam4n1 () Int)
(declare-fun lam4n2 () Int)
(declare-fun lam4n3 () Int)
(declare-fun lam4n4 () Int)
(declare-fun lam4n6 () Int)
(declare-fun lam4n5 () Int)
(assert ( and ( <= ( - 1 ) Nl37cmd1^01 ) ( <= Nl37cmd1^01 1 ) ( <= ( - 1 ) Nl37cmd2^01 ) ( <= Nl37cmd2^01 1 ) ( <= ( - 1 ) Nl37i16^01 ) ( <= Nl37i16^01 1 ) ( <= ( - 1 ) Nl37zer^01 ) ( <= Nl37zer^01 1 ) ))
(assert ( or ( and ( >= lam0n0 0 ) ( >= lam0n1 0 ) ( >= lam0n2 0 ) ( >= lam0n3 0 ) ( >= lam0n4 0 ) ( >= lam0n5 0 ) ( > ( + ( * 1 lam0n2 ) ( * 14 lam0n3 ) ( * 129 lam0n4 ) ( * Nl37CT1 lam0n5 ) ( - 1 ) ) 0 ) ( = ( + ( * ( - 1 ) lam0n4 ) ( * Nl37cmd1^01 lam0n5 ) ) 0 ) ( = ( + ( * 1 lam0n0 ) ( * ( - 1 ) lam0n3 ) ( * 1 lam0n4 ) ( * Nl37cmd2^01 lam0n5 ) ) 0 ) ( = ( + ( * ( - 1 ) lam0n1 ) ( * Nl37i16^01 lam0n5 ) ) 0 ) ( = ( + ( * ( - 1 ) lam0n0 ) ( * ( - 1 ) lam0n2 ) ( * Nl37zer^01 lam0n5 ) ) 0 ) ( = ( * 1 lam0n0 ) 0 ) ) ( and ( >= lam1n0 0 ) ( >= lam1n1 0 ) ( >= lam1n2 0 ) ( >= lam1n3 0 ) ( >= lam1n4 0 ) ( >= lam1n5 0 ) ( > ( + ( * 1 lam1n2 ) ( * 14 lam1n3 ) ( * 129 lam1n4 ) ( * Nl37CT1 lam1n5 ) ( - 1 ( + Nl37CT1 ( * Nl37i16^01 ( - 1 ) ) ) ) ) 0 ) ( = ( + ( * ( - 1 ) lam1n4 ) ( * Nl37cmd1^01 lam1n5 ) ( - ( + 0 Nl37cmd1^01 ) ) ) 0 ) ( = ( + ( * 1 lam1n0 ) ( * ( - 1 ) lam1n3 ) ( * 1 lam1n4 ) ( * Nl37cmd2^01 lam1n5 ) ( - ( + 0 Nl37cmd2^01 ) ) ) 0 ) ( = ( + ( * ( - 1 ) lam1n1 ) ( * Nl37i16^01 lam1n5 ) ( - ( + 0 ( * Nl37i16^01 1 ) ) ) ) 0 ) ( = ( + ( * ( - 1 ) lam1n0 ) ( * ( - 1 ) lam1n2 ) ( * Nl37zer^01 lam1n5 ) ( - ( + 0 Nl37zer^01 ) ) ) 0 ) ( = ( * 1 lam1n0 ) 0 ) ) ))
(assert ( and ( not ( <= ( + 1 ( * ( - 1 ) cmd2^0 ) zer^0 ( * ( - 1 ) undef1834 ) ) 0 ) ) ( not ( <= zer^0 0 ) ) ( <= ( + 14 ( * ( - 1 ) cmd2^0 ) ) 0 ) ( <= ( + 129 ( * ( - 1 ) cmd1^0 ) cmd2^0 ) 0 ) ( = ( + i16^0 ( * ( - 1 ) undef11511 ) ) 0 ) ( <= ( + Nl37CT1 ( * ( + 0 Nl37cmd1^01 ) cmd1^0 ) ( * ( + 0 Nl37cmd2^01 ) cmd2^0 ) ( * ( + 0 Nl37i16^01 ) i16^0 ) ( * ( + 0 Nl37zer^01 ) zer^0 ) ) 0 ) ))
(assert ( or ( or ( and ( >= lam3n0 0 ) ( >= lam3n1 0 ) ( >= lam3n2 0 ) ( >= lam3n3 0 ) ( >= lam3n4 0 ) ( >= lam3n6 0 ) ( > ( + ( * 1 lam3n0 ) ( * 1 lam3n1 ) ( * 14 lam3n2 ) ( * 14 lam3n3 ) ( * 129 lam3n4 ) ( * ( - 1872 ) lam3n5 ) ( * Nl37CT1 lam3n6 ) ( - 1 ) ) 0 ) ( = ( + ( * ( - 1 ) lam3n4 ) ( * 1 lam3n5 ) ( * Nl37cmd1^01 lam3n6 ) ) 0 ) ( = ( + ( * ( - 1 ) lam3n2 ) ( * ( - 1 ) lam3n3 ) ( * 1 lam3n4 ) ( * Nl37cmd2^01 lam3n6 ) ) 0 ) ( = ( + ( * 1 lam3n0 ) ( * Nl37i16^01 lam3n6 ) ) 0 ) ( = ( + ( * ( - 1 ) lam3n1 ) ( * Nl37zer^01 lam3n6 ) ) 0 ) ( = ( * ( - 1 ) lam3n3 ) 0 ) ) ( and ( >= lam4n0 0 ) ( >= lam4n1 0 ) ( >= lam4n2 0 ) ( >= lam4n3 0 ) ( >= lam4n4 0 ) ( >= lam4n6 0 ) ( > ( + ( * 1 lam4n0 ) ( * 1 lam4n1 ) ( * 14 lam4n2 ) ( * 14 lam4n3 ) ( * 129 lam4n4 ) ( * ( - 1872 ) lam4n5 ) ( * Nl37CT1 lam4n6 ) ) 0 ) ( = ( + ( * ( - 1 ) lam4n4 ) ( * 1 lam4n5 ) ( * Nl37cmd1^01 lam4n6 ) ) 0 ) ( = ( + ( * ( - 1 ) lam4n2 ) ( * ( - 1 ) lam4n3 ) ( * 1 lam4n4 ) ( * Nl37cmd2^01 lam4n6 ) 1 ) 0 ) ( = ( + ( * 1 lam4n0 ) ( * Nl37i16^01 lam4n6 ) ) 0 ) ( = ( + ( * ( - 1 ) lam4n1 ) ( * Nl37zer^01 lam4n6 ) ( - 1 ) ) 0 ) ( = 1 0 ) ( = ( * ( - 1 ) lam4n3 ) 0 ) ) ) ( and ( and ( >= lam2n0 0 ) ( >= lam2n1 0 ) ( >= lam2n2 0 ) ( >= lam2n3 0 ) ( > ( + ( * 1 lam2n1 ) ( * 14 lam2n2 ) ( * 129 lam2n3 ) ( - 1 Nl37CT1 ) ) 0 ) ( = ( + ( * ( - 1 ) lam2n3 ) ( - ( + 0 Nl37cmd1^01 ) ) ) 0 ) ( = ( + ( * 1 lam2n0 ) ( * ( - 1 ) lam2n2 ) ( * 1 lam2n3 ) ( - ( + 0 Nl37cmd2^01 ) ) ) 0 ) ( = ( + ( * 1 lam2n4 ) ( - ( + 0 Nl37i16^01 ) ) ) 0 ) ( = ( + ( * ( - 1 ) lam2n0 ) ( * ( - 1 ) lam2n1 ) ( - ( + 0 Nl37zer^01 ) ) ) 0 ) ( = ( * 1 lam2n0 ) 0 ) ( = ( * ( - 1 ) lam2n4 ) 0 ) ) ( and ( >= lam0n0 0 ) ( >= lam0n1 0 ) ( >= lam0n2 0 ) ( >= lam0n3 0 ) ( >= lam0n4 0 ) ( >= lam0n5 0 ) ( > ( + ( * 1 lam0n2 ) ( * 14 lam0n3 ) ( * 129 lam0n4 ) ( * Nl37CT1 lam0n5 ) ( - 1 ) ) 0 ) ( = ( + ( * ( - 1 ) lam0n4 ) ( * Nl37cmd1^01 lam0n5 ) ) 0 ) ( = ( + ( * 1 lam0n0 ) ( * ( - 1 ) lam0n3 ) ( * 1 lam0n4 ) ( * Nl37cmd2^01 lam0n5 ) ) 0 ) ( = ( + ( * ( - 1 ) lam0n1 ) ( * Nl37i16^01 lam0n5 ) ) 0 ) ( = ( + ( * ( - 1 ) lam0n0 ) ( * ( - 1 ) lam0n2 ) ( * Nl37zer^01 lam0n5 ) ) 0 ) ( = ( * 1 lam0n0 ) 0 ) ) ) ))
(check-sat)
(exit)
